50

100 3 223
97 15 442
96 25 215
92 5 456
89 10 438
86 26 333
83 17 358
83 4 359
82 13 549
79 1 563
77 6 291
76 22 294
73 16 211
73 8 508
70 6 287
69 20 320
69 2 403
61 9 489
60 9 558
60 13 346
60 16 421
58 3 558
56 9 536
56 2 512
53 13 580
51 7 287
49 10 456
48 15 511
48 8 444
48 9 346
47 1 358
46 10 219
42 4 566
41 8 322
36 9 553
35 8 404
34 9 220
32 7 472
32 3 471
32 2 294
31 10 514
22 2 267
17 5 537
12 2 311
12 2 297
6 1 366
6 1 539
5 1 237
3 1 239
2 1 591
